NAME : LPS-n5-m39
COMMENT : (Lartu-Peter-Santi Plot, instance 839 out of 39200. 5 customers.)
TYPE : CVRP
DIMENSION : 5
EDGE_WEIGHT_TYPE : EUC_2D
CAPACITY : 104
NODE_COORD_SECTION
 1 47 60
 2 31 82
 3 47 23
 4 42 1
 5 99 29
DEMAND_SECTION
1 0
2 96
3 74
4 69
5 41
DEPOT_SECTION
 1
 -1
EOF
